; benchmark generated from python API
(set-info :status unknown)
(declare-fun x_months () (_ BitVec 32))
(declare-fun x_beta () (_ BitVec 32))
(assert
 (bvsle (_ bv4294966096 32) x_months))
(assert
 (bvsge (_ bv1199 32) x_months))
(assert
 (bvsle (_ bv0 32) x_beta))
(assert
 (let ((?x51641 (bvadd x_months (_ bv24003 32))))
 (let ((?x23474 (bvsub ?x51641 (bvmul (bvsdiv (bvsub ?x51641 (_ bv1 32)) (_ bv12 32)) (_ bv12 32)))))
 (let ((?x91045 (ite (or (= ?x23474 (_ bv4 32)) (= ?x23474 (_ bv6 32)) (= ?x23474 (_ bv9 32)) (= ?x23474 (_ bv11 32))) (_ bv30 32) (_ bv31 32))))
 (let (($x7130 (and (= (bvsmod (bvsdiv (bvsub ?x51641 (_ bv1 32)) (_ bv12 32)) (_ bv4 32)) (_ bv0 32)) (and (distinct (bvsmod (bvsdiv (bvsub ?x51641 (_ bv1 32)) (_ bv12 32)) (_ bv100 32)) (_ bv0 32)) true))))
 (let ((?x86379 (ite (or $x7130 (= (bvsmod (bvsdiv (bvsub ?x51641 (_ bv1 32)) (_ bv12 32)) (_ bv400 32)) (_ bv0 32))) (_ bv29 32) (_ bv28 32))))
 (bvslt x_beta (ite (= ?x23474 (_ bv2 32)) ?x86379 ?x91045))))))))
(assert
 (let (($x35915 (bvsle (_ bv0 32) x_beta)))
 (or (bvsgt x_months (bvsub (bvadd (bvmul (_ bv2020 32) (_ bv12 32)) (_ bv1 32)) (_ bv24003 32))) (and (= x_months (bvsub (bvadd (bvmul (_ bv2020 32) (_ bv12 32)) (_ bv1 32)) (_ bv24003 32))) $x35915))))
(assert
 (let (($x37529 (and (= x_months (bvsub (bvadd (bvmul (_ bv2020 32) (_ bv12 32)) (_ bv2 32)) (_ bv24003 32))) (bvsge (_ bv27 32) x_beta))))
 (or (bvslt x_months (bvsub (bvadd (bvmul (_ bv2020 32) (_ bv12 32)) (_ bv2 32)) (_ bv24003 32))) $x37529)))
(assert
 (let ((?x8222 (bvadd x_beta (_ bv1 32))))
(let ((?x14215 (bvsdiv (bvsub (bvadd (bvadd x_months (_ bv0 32)) (_ bv24003 32)) (_ bv1 32)) (_ bv12 32))))
(let ((?x63647 (bvadd (bvadd x_months (_ bv0 32)) (_ bv24003 32))))
(let ((?x74193 (bvsub ?x63647 (bvmul ?x14215 (_ bv12 32)))))
(let ((?x59450 (ite (or (= ?x74193 (_ bv4 32)) (= ?x74193 (_ bv6 32)) (= ?x74193 (_ bv9 32)) (= ?x74193 (_ bv11 32))) (_ bv30 32) (_ bv31 32))))
(let (($x64314 (or (and (= (bvsmod ?x14215 (_ bv4 32)) (_ bv0 32)) (and (distinct (bvsmod ?x14215 (_ bv100 32)) (_ bv0 32)) true)) (= (bvsmod ?x14215 (_ bv400 32)) (_ bv0 32)))))
(let ((?x25393 (ite (= ?x74193 (_ bv2 32)) (ite $x64314 (_ bv29 32) (_ bv28 32)) ?x59450)))
(let (($x36977 (bvsgt (_ bv1 32) ?x8222)))
(let ((?x24211 (ite $x36977 (_ bv1 32) (ite (bvsgt ?x8222 ?x25393) ?x25393 ?x8222))))
(let ((?x88978 (ite (bvsgt (_ bv1 32) ?x24211) (_ bv1 32) (ite (bvsgt ?x24211 ?x25393) ?x25393 ?x24211))))
(let ((?x88734 (ite (= (_ bv2 32) ?x74193) (ite $x64314 (_ bv31 32) (_ bv31 32)) (ite (= (_ bv1 32) ?x74193) (ite $x64314 (_ bv0 32) (_ bv0 32)) (_ bv0 32)))))
(let ((?x74085 (ite (= (_ bv4 32) ?x74193) (ite $x64314 (_ bv91 32) (_ bv90 32)) (ite (= (_ bv3 32) ?x74193) (ite $x64314 (_ bv60 32) (_ bv59 32)) ?x88734))))
(let ((?x58626 (ite (= (_ bv6 32) ?x74193) (ite $x64314 (_ bv152 32) (_ bv151 32)) (ite (= (_ bv5 32) ?x74193) (ite $x64314 (_ bv121 32) (_ bv120 32)) ?x74085))))
(let ((?x86112 (ite (= (_ bv8 32) ?x74193) (ite $x64314 (_ bv213 32) (_ bv212 32)) (ite (= (_ bv7 32) ?x74193) (ite $x64314 (_ bv182 32) (_ bv181 32)) ?x58626))))
(let ((?x86623 (ite (= (_ bv10 32) ?x74193) (ite $x64314 (_ bv274 32) (_ bv273 32)) (ite (= (_ bv9 32) ?x74193) (ite $x64314 (_ bv244 32) (_ bv243 32)) ?x86112))))
(let ((?x24719 (ite (= (_ bv12 32) ?x74193) (ite $x64314 (_ bv335 32) (_ bv334 32)) (ite (= (_ bv11 32) ?x74193) (ite $x64314 (_ bv305 32) (_ bv304 32)) ?x86623))))
(let ((?x22655 (bvadd (bvmul (_ bv365 32) (bvsub ?x14215 (_ bv1 32))) (bvsdiv (bvsub ?x14215 (_ bv1 32)) (_ bv4 32)))))
(let ((?x55049 (bvadd (bvsub ?x22655 (bvsdiv (bvsub ?x14215 (_ bv1 32)) (_ bv100 32))) (bvsdiv (bvsub ?x14215 (_ bv1 32)) (_ bv400 32)))))
(let ((?x1835 (bvadd (bvadd (bvsub (bvadd (bvadd ?x55049 ?x24719) (bvsub ?x88978 (_ bv1 32))) (_ bv730179 32)) (_ bv365 32)) (_ bv730179 32))))
(let ((?x64764 (bvsmod ?x1835 (_ bv146097 32))))
(let ((?x73393 (bvsdiv ?x64764 (_ bv36524 32))))
(let ((?x12107 (ite (bvsle (_ bv4 32) ?x73393) (_ bv3 32) ?x73393)))
(let ((?x3851 (bvsub ?x64764 (bvmul ?x12107 (_ bv36524 32)))))
(let ((?x86053 (bvsmod ?x3851 (_ bv1461 32))))
(let ((?x42220 (bvsdiv ?x86053 (_ bv365 32))))
(let ((?x41535 (ite (bvsle (_ bv4 32) ?x42220) (_ bv3 32) ?x42220)))
(let ((?x80436 (bvadd (bvadd (bvmul (bvsdiv ?x1835 (_ bv146097 32)) (_ bv400 32)) (bvmul ?x12107 (_ bv100 32))) (bvmul (bvsdiv ?x3851 (_ bv1461 32)) (_ bv4 32)))))
(let ((?x3238 (bvadd (bvadd ?x80436 ?x41535) (_ bv1 32))))
(let (($x91080 (or (and (= (bvsmod ?x3238 (_ bv4 32)) (_ bv0 32)) (and (distinct (bvsmod ?x3238 (_ bv100 32)) (_ bv0 32)) true)) (= (bvsmod ?x3238 (_ bv400 32)) (_ bv0 32)))))
(let ((?x83655 (bvsub ?x86053 (bvmul ?x41535 (_ bv365 32)))))
(let ((?x33957 (ite $x91080 (_ bv31 32) (_ bv31 32))))
(let (($x72170 (bvsge ?x83655 ?x33957)))
(let ((?x78159 (ite $x72170 (bvadd (bvsub ?x83655 ?x33957) (_ bv1 32)) (bvadd (bvsub ?x83655 (ite $x91080 (_ bv0 32) (_ bv0 32))) (_ bv1 32)))))
(let ((?x73649 (ite $x91080 (_ bv60 32) (_ bv59 32))))
(let (($x32302 (bvsge ?x83655 ?x73649)))
(let ((?x34796 (ite $x91080 (_ bv91 32) (_ bv90 32))))
(let (($x23769 (bvsge ?x83655 ?x34796)))
(let ((?x67387 (ite $x23769 (bvadd (bvsub ?x83655 ?x34796) (_ bv1 32)) (ite $x32302 (bvadd (bvsub ?x83655 ?x73649) (_ bv1 32)) ?x78159))))
(let ((?x12147 (ite $x91080 (_ bv121 32) (_ bv120 32))))
(let (($x54108 (bvsge ?x83655 ?x12147)))
(let ((?x36600 (ite $x91080 (_ bv152 32) (_ bv151 32))))
(let (($x2873 (bvsge ?x83655 ?x36600)))
(let ((?x37612 (ite $x2873 (bvadd (bvsub ?x83655 ?x36600) (_ bv1 32)) (ite $x54108 (bvadd (bvsub ?x83655 ?x12147) (_ bv1 32)) ?x67387))))
(let ((?x88680 (ite $x91080 (_ bv182 32) (_ bv181 32))))
(let (($x67368 (bvsge ?x83655 ?x88680)))
(let ((?x54285 (ite $x91080 (_ bv213 32) (_ bv212 32))))
(let (($x38450 (bvsge ?x83655 ?x54285)))
(let ((?x8453 (ite $x38450 (bvadd (bvsub ?x83655 ?x54285) (_ bv1 32)) (ite $x67368 (bvadd (bvsub ?x83655 ?x88680) (_ bv1 32)) ?x37612))))
(let ((?x54288 (ite $x91080 (_ bv244 32) (_ bv243 32))))
(let (($x37855 (bvsge ?x83655 ?x54288)))
(let ((?x83663 (ite $x91080 (_ bv274 32) (_ bv273 32))))
(let (($x5002 (bvsge ?x83655 ?x83663)))
(let ((?x6644 (ite $x5002 (bvadd (bvsub ?x83655 ?x83663) (_ bv1 32)) (ite $x37855 (bvadd (bvsub ?x83655 ?x54288) (_ bv1 32)) ?x8453))))
(let ((?x85809 (ite $x91080 (_ bv305 32) (_ bv304 32))))
(let (($x14573 (bvsge ?x83655 ?x85809)))
(let ((?x36289 (ite $x91080 (_ bv335 32) (_ bv334 32))))
(let (($x53330 (bvsge ?x83655 ?x36289)))
(let ((?x61049 (ite $x53330 (bvadd (bvsub ?x83655 ?x36289) (_ bv1 32)) (ite $x14573 (bvadd (bvsub ?x83655 ?x85809) (_ bv1 32)) ?x6644))))
(let (($x25797 (= (_ bv365 32) (_ bv0 32))))
(let ((?x68501 (bvsdiv (bvsub (bvadd (bvadd x_months (_ bv12 32)) (_ bv24003 32)) (_ bv1 32)) (_ bv12 32))))
(let ((?x88707 (bvadd (bvadd x_months (_ bv12 32)) (_ bv24003 32))))
(let ((?x764 (bvsub ?x88707 (bvmul ?x68501 (_ bv12 32)))))
(let ((?x27777 (ite (or (= ?x764 (_ bv4 32)) (= ?x764 (_ bv6 32)) (= ?x764 (_ bv9 32)) (= ?x764 (_ bv11 32))) (_ bv30 32) (_ bv31 32))))
(let (($x54370 (or (and (= (bvsmod ?x68501 (_ bv4 32)) (_ bv0 32)) (and (distinct (bvsmod ?x68501 (_ bv100 32)) (_ bv0 32)) true)) (= (bvsmod ?x68501 (_ bv400 32)) (_ bv0 32)))))
(let ((?x40230 (ite (= ?x764 (_ bv2 32)) (ite $x54370 (_ bv29 32) (_ bv28 32)) ?x27777)))
(let ((?x63376 (ite $x36977 (_ bv1 32) (ite (bvsgt ?x8222 ?x40230) ?x40230 ?x8222))))
(let ((?x84324 (ite (bvsgt (_ bv1 32) ?x63376) (_ bv1 32) (ite (bvsgt ?x63376 ?x40230) ?x40230 ?x63376))))
(let ((?x87440 (ite (= (_ bv2 32) ?x764) (ite $x54370 (_ bv31 32) (_ bv31 32)) (ite (= (_ bv1 32) ?x764) (ite $x54370 (_ bv0 32) (_ bv0 32)) (_ bv0 32)))))
(let ((?x27050 (ite (= (_ bv4 32) ?x764) (ite $x54370 (_ bv91 32) (_ bv90 32)) (ite (= (_ bv3 32) ?x764) (ite $x54370 (_ bv60 32) (_ bv59 32)) ?x87440))))
(let ((?x21388 (ite (= (_ bv6 32) ?x764) (ite $x54370 (_ bv152 32) (_ bv151 32)) (ite (= (_ bv5 32) ?x764) (ite $x54370 (_ bv121 32) (_ bv120 32)) ?x27050))))
(let ((?x63636 (ite (= (_ bv8 32) ?x764) (ite $x54370 (_ bv213 32) (_ bv212 32)) (ite (= (_ bv7 32) ?x764) (ite $x54370 (_ bv182 32) (_ bv181 32)) ?x21388))))
(let ((?x56033 (ite (= (_ bv10 32) ?x764) (ite $x54370 (_ bv274 32) (_ bv273 32)) (ite (= (_ bv9 32) ?x764) (ite $x54370 (_ bv244 32) (_ bv243 32)) ?x63636))))
(let ((?x25060 (ite (= (_ bv12 32) ?x764) (ite $x54370 (_ bv335 32) (_ bv334 32)) (ite (= (_ bv11 32) ?x764) (ite $x54370 (_ bv305 32) (_ bv304 32)) ?x56033))))
(let ((?x72631 (bvadd (bvmul (_ bv365 32) (bvsub ?x68501 (_ bv1 32))) (bvsdiv (bvsub ?x68501 (_ bv1 32)) (_ bv4 32)))))
(let ((?x54427 (bvadd (bvsub ?x72631 (bvsdiv (bvsub ?x68501 (_ bv1 32)) (_ bv100 32))) (bvsdiv (bvsub ?x68501 (_ bv1 32)) (_ bv400 32)))))
(let ((?x83194 (bvadd (bvadd (bvsub (bvadd (bvadd ?x54427 ?x25060) (bvsub ?x84324 (_ bv1 32))) (_ bv730179 32)) (_ bv0 32)) (_ bv730179 32))))
(let ((?x80230 (bvsmod ?x83194 (_ bv146097 32))))
(let ((?x12896 (bvsdiv ?x80230 (_ bv36524 32))))
(let ((?x83254 (ite (bvsle (_ bv4 32) ?x12896) (_ bv3 32) ?x12896)))
(let ((?x53328 (bvsub ?x80230 (bvmul ?x83254 (_ bv36524 32)))))
(let ((?x66706 (bvsmod ?x53328 (_ bv1461 32))))
(let ((?x74776 (bvsdiv ?x66706 (_ bv365 32))))
(let ((?x27115 (ite (bvsle (_ bv4 32) ?x74776) (_ bv3 32) ?x74776)))
(let ((?x51563 (bvadd (bvadd (bvmul (bvsdiv ?x83194 (_ bv146097 32)) (_ bv400 32)) (bvmul ?x83254 (_ bv100 32))) (bvmul (bvsdiv ?x53328 (_ bv1461 32)) (_ bv4 32)))))
(let ((?x44444 (bvadd (bvadd ?x51563 ?x27115) (_ bv1 32))))
(let (($x27361 (or (and (= (bvsmod ?x44444 (_ bv4 32)) (_ bv0 32)) (and (distinct (bvsmod ?x44444 (_ bv100 32)) (_ bv0 32)) true)) (= (bvsmod ?x44444 (_ bv400 32)) (_ bv0 32)))))
(let ((?x1313 (bvsub ?x66706 (bvmul ?x27115 (_ bv365 32)))))
(let ((?x50173 (ite $x27361 (_ bv31 32) (_ bv31 32))))
(let (($x72535 (bvsge ?x1313 ?x50173)))
(let ((?x80339 (ite $x72535 (bvadd (bvsub ?x1313 ?x50173) (_ bv1 32)) (bvadd (bvsub ?x1313 (ite $x27361 (_ bv0 32) (_ bv0 32))) (_ bv1 32)))))
(let ((?x54519 (ite $x27361 (_ bv60 32) (_ bv59 32))))
(let (($x70622 (bvsge ?x1313 ?x54519)))
(let ((?x25252 (ite $x27361 (_ bv91 32) (_ bv90 32))))
(let (($x78678 (bvsge ?x1313 ?x25252)))
(let ((?x38925 (ite $x78678 (bvadd (bvsub ?x1313 ?x25252) (_ bv1 32)) (ite $x70622 (bvadd (bvsub ?x1313 ?x54519) (_ bv1 32)) ?x80339))))
(let ((?x24221 (ite $x27361 (_ bv121 32) (_ bv120 32))))
(let (($x62607 (bvsge ?x1313 ?x24221)))
(let ((?x50199 (ite $x27361 (_ bv152 32) (_ bv151 32))))
(let (($x25032 (bvsge ?x1313 ?x50199)))
(let ((?x1146 (ite $x25032 (bvadd (bvsub ?x1313 ?x50199) (_ bv1 32)) (ite $x62607 (bvadd (bvsub ?x1313 ?x24221) (_ bv1 32)) ?x38925))))
(let ((?x23564 (ite $x27361 (_ bv182 32) (_ bv181 32))))
(let (($x42226 (bvsge ?x1313 ?x23564)))
(let ((?x83683 (ite $x27361 (_ bv213 32) (_ bv212 32))))
(let (($x73384 (bvsge ?x1313 ?x83683)))
(let ((?x79107 (ite $x73384 (bvadd (bvsub ?x1313 ?x83683) (_ bv1 32)) (ite $x42226 (bvadd (bvsub ?x1313 ?x23564) (_ bv1 32)) ?x1146))))
(let ((?x6824 (ite $x27361 (_ bv244 32) (_ bv243 32))))
(let (($x54402 (bvsge ?x1313 ?x6824)))
(let ((?x79587 (ite $x27361 (_ bv274 32) (_ bv273 32))))
(let (($x11632 (bvsge ?x1313 ?x79587)))
(let ((?x55823 (ite $x11632 (bvadd (bvsub ?x1313 ?x79587) (_ bv1 32)) (ite $x54402 (bvadd (bvsub ?x1313 ?x6824) (_ bv1 32)) ?x79107))))
(let ((?x18609 (ite $x27361 (_ bv305 32) (_ bv304 32))))
(let (($x22617 (bvsge ?x1313 ?x18609)))
(let ((?x20748 (ite $x27361 (_ bv335 32) (_ bv334 32))))
(let (($x18938 (bvsge ?x1313 ?x20748)))
(let ((?x71966 (ite $x18938 (bvadd (bvsub ?x1313 ?x20748) (_ bv1 32)) (ite $x22617 (bvadd (bvsub ?x1313 ?x18609) (_ bv1 32)) ?x55823))))
(let (($x5114 (= (_ bv0 32) (_ bv0 32))))
(let (($x20957 (= (bvsub (ite $x5114 ?x84324 ?x71966) (_ bv1 32)) (bvsub (ite $x25797 ?x88978 ?x61049) (_ bv1 32)))))
(let ((?x38559 (ite $x2873 (_ bv6 32) (ite $x54108 (_ bv5 32) (ite $x23769 (_ bv4 32) (ite $x32302 (_ bv3 32) (ite $x72170 (_ bv2 32) (_ bv1 32))))))))
(let ((?x88693 (ite $x14573 (_ bv11 32) (ite $x5002 (_ bv10 32) (ite $x37855 (_ bv9 32) (ite $x38450 (_ bv8 32) (ite $x67368 (_ bv7 32) ?x38559)))))))
(let ((?x24347 (ite $x53330 (_ bv12 32) ?x88693)))
(let ((?x52152 (bvsub (bvadd (bvmul (ite $x25797 ?x14215 ?x3238) (_ bv12 32)) (ite $x25797 ?x74193 ?x24347)) (_ bv24003 32))))
(let ((?x84787 (ite $x25032 (_ bv6 32) (ite $x62607 (_ bv5 32) (ite $x78678 (_ bv4 32) (ite $x70622 (_ bv3 32) (ite $x72535 (_ bv2 32) (_ bv1 32))))))))
(let ((?x74805 (ite $x22617 (_ bv11 32) (ite $x11632 (_ bv10 32) (ite $x54402 (_ bv9 32) (ite $x73384 (_ bv8 32) (ite $x42226 (_ bv7 32) ?x84787)))))))
(let ((?x17811 (bvadd (bvmul (ite $x5114 ?x68501 ?x44444) (_ bv12 32)) (ite $x5114 ?x764 (ite $x18938 (_ bv12 32) ?x74805)))))
(not (and (= (bvsub ?x17811 (_ bv24003 32)) ?x52152) $x20957)))))))))))))))))))))))))))))))))))))))))))))))))))))))))))))))))))))))))))))))))))))))))))))))))))))))))))))))))))))))))))))))
(check-sat)
